
******************************************************************************
This program contains Ipopt, a library for large-scale nonlinear optimization.
 Ipopt is released as open source code under the Eclipse Public License (EPL).
         For more information visit http://projects.coin-or.org/Ipopt
******************************************************************************

This is Ipopt version 3.12.6, running with linear solver ma57.

Number of nonzeros in equality constraint Jacobian...:        0
Number of nonzeros in inequality constraint Jacobian.:        0
Number of nonzeros in Lagrangian Hessian.............:   109945

Total number of variables............................:    10000
                     variables with only lower bounds:        0
                variables with lower and upper bounds:        0
                     variables with only upper bounds:        0
Total number of equality constraints.................:        0
Total number of inequality constraints...............:        0
        inequality constraints with only lower bounds:        0
   inequality constraints with lower and upper bounds:        0
        inequality constraints with only upper bounds:        0

iter    objective    inf_pr   inf_du lg(mu)  ||d||  lg(rg) alpha_du alpha_pr  ls
   0 -6.3061842e-01 0.00e+00 1.58e+00  -1.0 0.00e+00    -  0.00e+00 0.00e+00   0
   1 -5.8083048e+00 0.00e+00 3.07e+00  -1.0 3.07e-04   4.0 1.00e+00 1.00e+00f  1
   2 -9.2843199e+00 0.00e+00 3.75e+00  -1.0 1.40e-04   4.4 1.00e+00 1.00e+00f  1
   3 -4.9496566e+01 0.00e+00 8.22e+00  -1.0 9.25e-04   3.9 1.00e+00 1.00e+00f  1
   4 -7.8869325e+01 0.00e+00 1.03e+01  -1.0 4.36e-04   4.4 1.00e+00 1.00e+00f  1
   5 -5.3208053e+02 0.00e+00 2.66e+01  -1.0 3.37e-03   3.9 1.00e+00 1.00e+00f  1
   6 -8.9726236e+02 0.00e+00 3.46e+01  -1.0 1.64e-03   4.3 1.00e+00 1.00e+00f  1
   7 -9.2301451e+03 0.00e+00 1.10e+02  -1.0 1.58e-02   3.8 1.00e+00 1.00e+00f  1
   8 -1.6669140e+04 0.00e+00 1.47e+02  -1.0 7.89e-03   4.3 1.00e+00 1.00e+00f  1
   9 -2.6600582e+05 0.00e+00 4.91e+02  -1.0 9.41e-02   3.8 1.00e+00 1.00e+00f  1
iter    objective    inf_pr   inf_du lg(mu)  ||d||  lg(rg) alpha_du alpha_pr  ls
  10 -4.2317506e+05 0.00e+00 5.35e+02  -1.0 3.38e-02   4.2 1.00e+00 1.00e+00f  1
  11 -9.7881998e+05 0.00e+00 4.63e+02  -1.0 1.69e-01   3.7 1.00e+00 1.00e+00f  1
  12 -1.0023927e+06 0.00e+00 5.67e+02  -1.0 3.01e-01   3.3 1.00e+00 1.00e+00f  1
  13 -1.0028413e+06 0.00e+00 1.18e+02  -1.0 2.13e-01   2.8 1.00e+00 1.00e+00f  1
  14 -1.0029672e+06 0.00e+00 5.47e+01  -1.0 4.36e-01   2.3 1.00e+00 1.00e+00f  1
  15 -1.0030462e+06 0.00e+00 2.96e+01  -1.0 6.03e-01   1.8 1.00e+00 1.00e+00f  1
  16 -1.0030989e+06 0.00e+00 1.55e+01  -1.0 7.15e-01   1.4 1.00e+00 1.00e+00f  1
  17 -1.0031398e+06 0.00e+00 8.07e+01  -1.0 3.63e+00    -  1.00e+00 1.00e+00f  1
  18 -1.0031621e+06 0.00e+00 1.23e+01  -1.0 5.86e-01    -  1.00e+00 1.00e+00f  1
  19 -1.0031629e+06 0.00e+00 6.98e-01  -1.0 1.39e-01    -  1.00e+00 1.00e+00f  1
iter    objective    inf_pr   inf_du lg(mu)  ||d||  lg(rg) alpha_du alpha_pr  ls
  20 -1.0031629e+06 0.00e+00 2.84e-03  -1.7 8.67e-03    -  1.00e+00 1.00e+00f  1
  21 -1.0031629e+06 0.00e+00 4.78e-08  -3.8 3.55e-05    -  1.00e+00 1.00e+00f  1
  22 -1.0031629e+06 0.00e+00 9.65e-13  -8.6 5.96e-10    -  1.00e+00 1.00e+00f  1

Number of Iterations....: 22

                                   (scaled)                 (unscaled)
Objective...............:  -1.0031629024131879e+06   -1.0031629024131879e+06
Dual infeasibility......:   9.6454788600652819e-13    9.6454788600652819e-13
Constraint violation....:   0.0000000000000000e+00    0.0000000000000000e+00
Complementarity.........:   0.0000000000000000e+00    0.0000000000000000e+00
Overall NLP error.......:   9.6454788600652819e-13    9.6454788600652819e-13


Number of objective function evaluations             = 23
Number of objective gradient evaluations             = 23
Number of equality constraint evaluations            = 0
Number of inequality constraint evaluations          = 0
Number of equality constraint Jacobian evaluations   = 0
Number of inequality constraint Jacobian evaluations = 0
Number of Lagrangian Hessian evaluations             = 22
Total CPU secs in IPOPT (w/o function evaluations)   =      0.263
Total CPU secs in NLP function evaluations           =      0.190

EXIT: Optimal Solution Found.

 ** SUBROUTINE CUTEST_csetup: Warning. The problem has no general constraints. 
 ** Other tools may be preferable ** 

************************ CUTEst statistics ************************


 Package used            :  IPOPT
 Problem                 :  CURLY10   
 # variables             =           10000
 # constraints           =               0
 # objective functions   =        0.4700000E+02
 # objective gradients   =        0.2400000E+02
 # objective Hessians    =        0.2300000E+02
 # Hessian-vector prdct  =        0.0000000E+00
 # constraints functions =        0.0000000E+00
 # constraints gradients =        0.0000000E+00
 # constraints Hessians  =        0.0000000E+00
 Exit code               =               0
 Final f                 =  -0.1003163E+07
 Set up time             =            0.27 seconds
 Solve time              =            0.50 seconds


******************************************************************

System Time =       0.4499999881 s.
